NAME : amz1743.69852_68352.tour
COMMENT : Cost = 69852_68352
COMMENT : Found by LKH-AMZ [Keld Helsgaun] Sun May 11 13:25:53 2025
COMMENT : TW viol.: 0 #: 0
TYPE : TOUR
DIMENSION : 79
TOUR_SECTION
59
54
62
3
57
47
60
15
9
33
31
48
18
13
76
51
36
29
30
7
20
58
64
19
14
42
45
75
52
39
17
21
40
4
10
67
41
23
50
49
74
78
66
72
63
53
68
43
61
2
46
56
24
37
6
11
26
44
69
35
22
27
12
55
34
16
71
8
25
5
38
1
73
65
79
28
70
77
32
-1
EOF
